p cnf 6 25
-1 4 3 0
2 -5 3 6 1 0
1 6 3 0
3 -6 5 1 0
-4 -2 0
2 3 -6 0
-2 5 6 0
6 3 1 0
-1 -6 -5 4 0
-3 6 -4 0
5 -1 4 0
6 -5 0
4 -5 0
6 4 2 3 5 -1 0
1 6 4 0
6 -1 -4 0
-1 -4 6 0
3 -6 0
-6 3 -1 -5 -2 -4 0
-2 3 0
2 -6 5 0
6 -4 0
1 5 0
-4 6 -3 0
-3 2 0
